(set-info :source |
 Generated by Alive 0.1
 More info in N. P. Lopes, D. Menendez, S. Nagarakatte, J. Regehr.
 Provably Correct Peephole Optimizations with Alive. In PLDI'15.
|)

(set-info :status unknown)
(declare-fun %Y () (_ BitVec 16))
(declare-fun %X () (_ BitVec 16))
(assert
 (let (($x473983 (and (distinct (bvurem ((_ zero_extend 7) %X) ((_ zero_extend 7) %Y)) ((_ zero_extend 7) (bvurem %X %Y))) true)))
 (let ((?x461920 ((_ zero_extend 7) %Y)))
 (let (($x461907 (and (distinct ?x461920 (_ bv0 23)) true)))
 (and $x461907 $x473983)))))
(check-sat)
